NAME : random149.929.tour
COMMENT : Length = 929
COMMENT : Found by LKH [Keld Helsgaun] Thu Sep 26 18:52:39 2024
TYPE : TOUR
DIMENSION : 149
TOUR_SECTION
1
9
74
141
3
2
111
43
82
37
39
15
126
122
57
140
29
116
46
130
101
103
117
30
19
58
72
18
16
100
84
143
79
49
146
123
127
47
50
112
110
23
133
52
5
40
92
42
22
44
85
120
108
91
93
45
77
69
51
94
118
14
125
8
78
89
55
75
76
32
61
56
137
134
131
26
102
25
109
113
70
41
36
31
68
65
62
80
17
87
33
67
114
59
136
20
90
95
97
7
12
83
48
124
106
107
144
105
28
21
35
34
99
148
4
138
71
115
132
88
73
60
147
142
64
6
139
121
11
145
135
104
119
86
129
13
81
27
98
128
66
96
38
63
149
10
54
24
53
-1
EOF
